p cnf 42 128
a 41 22 0
e 1 2 3 4 5 6 7 8 9 10 11 12 13 14 15 16 17 18 19 20 21 23 24 25 26 27 28 29 30 31 32 33 34 35 36 37 38 39 40 42 0
4 2 0
4 3 0
-2 -3 -4 0
-4 -5 -6 0
4 5 -6 0
-4 5 6 0
4 -5 6 0
-7 -1 0
-7 6 0
1 -6 7 0
7 -8 -9 0
-7 8 -9 0
7 8 9 0
-7 -8 9 0
10 -6 0
10 -2 0
6 2 -10 0
10 3 -11 0
-10 -3 -11 0
10 -3 11 0
-10 3 11 0
11 -12 -13 0
-11 12 -13 0
11 12 13 0
-11 -12 13 0
-14 -6 0
-14 -13 0
6 13 14 0
9 14 -15 0
-9 -14 -15 0
9 -14 15 0
-9 14 15 0
3 -8 -16 0
-3 8 -16 0
3 8 16 0
-3 -8 16 0
17 -15 0
17 16 0
15 -16 -17 0
-19 18 0
-19 7 0
-18 -7 19 0
-20 -18 0
-20 -8 0
18 8 20 0
21 20 0
21 18 0
-20 -18 -21 0
22 19 0
22 -21 0
-19 21 -22 0
-23 -10 0
-23 3 0
10 -3 23 0
-24 -7 0
-24 -23 0
7 23 24 0
25 6 0
25 -11 0
-6 11 -25 0
26 4 0
26 -25 0
-4 25 -26 0
-27 24 0
-27 -26 0
-24 26 27 0
28 -23 -29 0
-28 23 -29 0
28 23 29 0
-28 -23 29 0
27 -29 -30 0
-27 29 -30 0
27 29 30 0
-27 -29 30 0
-31 -22 0
-31 -30 0
22 30 31 0
32 -6 0
32 25 0
6 -25 -32 0
-12 8 -33 0
12 -8 -33 0
-12 -8 33 0
12 8 33 0
-32 -33 -34 0
32 33 -34 0
-32 33 34 0
32 -33 34 0
-23 34 -35 0
23 -34 -35 0
-23 -34 35 0
23 34 35 0
36 32 0
36 -26 0
-32 26 -36 0
-35 -36 -37 0
35 36 -37 0
-35 36 37 0
35 -36 37 0
38 31 0
38 -37 0
-31 37 -38 0
-39 17 0
-39 -38 0
-17 38 39 0
-13 -20 -40 0
13 20 -40 0
-13 20 40 0
13 -20 40 0
-41 40 0
-41 10 0
-40 -10 41 0
42 -39 0
42 -41 0
39 41 -42 0
-14 -19 34 -21 -23 0
-5 23 33 24 -36 0
18 -7 -1 30 10 -3 0
-14 -11 -30 -35 -10 0
19 26 -23 0
39 -16 21 20 22 0
8 -36 33 -35 -31 30 0
-36 5 -26 -7 -6 0
27 -2 -22 33 42 6 0
-41 -26 22 35 24 40 31 0
-39 37 -8 27 29 0
21 35 37 29 0
42 0
